knapPI_9_1000_1000_147
n 1000
c 253136
z 220883
time 0.3
1,780,1001,1
2,167,1001,1
3,904,1000,1
4,767,1000,1
5,402,1001,1
6,951,1001,1
7,732,1000,1
8,549,1001,1
9,242,1001,1
10,475,1001,1
11,29,1001,1
12,317,1000,1
13,470,1000,1
14,498,1001,1
15,152,1001,1
16,106,1001,1
17,970,1000,1
18,524,1001,1
19,627,1001,1
20,617,1001,1
21,76,1000,1
22,413,1000,1
23,998,1001,1
24,358,1000,1
25,684,1001,1
26,838,1000,1
27,20,1000,1
28,32,1001,1
29,177,1000,1
30,189,1000,1
31,497,1000,1
32,667,1001,1
33,663,1000,1
34,270,1001,1
35,172,1001,1
36,976,1000,1
37,205,1000,1
38,476,1000,1
39,665,1001,1
40,481,1001,1
41,699,1001,1
42,218,1001,1
43,617,1000,1
44,883,1000,1
45,65,1000,1
46,656,1001,1
47,874,1000,1
48,899,1001,1
49,535,1000,1
50,471,1000,1
51,952,1001,1
52,338,1000,1
53,677,1000,1
54,921,1001,1
55,217,1001,1
56,68,1001,1
57,257,1000,1
58,390,1001,1
59,773,1001,1
60,240,1000,1
61,307,1000,1
62,846,1001,1
63,579,1000,1
64,266,1000,1
65,563,1001,1
66,455,1001,1
67,366,1001,1
68,719,1001,1
69,227,1001,1
70,430,1000,1
71,500,1001,1
72,468,1000,1
73,620,1001,1
74,362,1000,1
75,779,1000,1
76,191,1001,1
77,669,1000,1
78,381,1001,1
79,600,1001,1
80,990,1000,1
81,715,1000,1
82,317,1001,1
83,912,1000,1
84,208,1001,1
85,93,1000,1
86,238,1000,1
87,109,1001,1
88,55,1001,1
89,587,1000,1
90,240,1000,1
91,526,1001,1
92,272,1000,1
93,463,1000,1
94,765,1001,1
95,82,1001,1
96,151,1001,1
97,15,1001,1
98,984,1000,1
99,146,1001,1
100,520,1001,1
101,9,1001,1
102,227,1000,1
103,260,1000,1
104,710,1001,1
105,125,1001,1
106,567,1000,1
107,627,1001,1
108,637,1000,1
109,44,1000,1
110,179,1001,1
111,76,1000,1
112,653,1001,1
113,122,1000,1
114,476,1001,1
115,698,1001,1
116,312,1001,1
117,694,1000,1
118,566,1000,1
119,145,1000,1
120,185,1001,1
121,536,1000,1
122,784,1000,1
123,920,1000,1
124,777,1001,1
125,905,1000,1
126,614,1001,1
127,826,1001,1
128,484,1001,1
129,9,1000,1
130,690,1001,1
131,346,1001,1
132,567,1000,1
133,571,1001,1
134,549,1001,1
135,30,1000,1
136,884,1000,1
137,338,1000,1
138,268,1000,1
139,387,1000,1
140,632,1001,1
141,765,1000,1
142,89,1001,1
143,306,1000,1
144,402,1000,1
145,934,1000,1
146,321,1000,1
147,85,1001,1
148,586,1001,1
149,347,1001,1
150,660,1000,1
151,116,1001,1
152,242,1001,1
153,487,1000,1
154,447,1001,1
155,19,1000,1
156,207,1001,1
157,985,1001,1
158,645,1000,1
159,627,1000,1
160,341,1000,1
161,169,1001,1
162,974,1001,1
163,592,1001,1
164,812,1001,1
165,225,1000,1
166,528,1001,1
167,193,1000,1
168,54,1001,1
169,815,1000,1
170,147,1001,1
171,856,1001,1
172,940,1000,1
173,29,1000,1
174,924,1000,1
175,634,1001,1
176,868,1000,1
177,393,1000,1
178,698,1001,1
179,832,1000,1
180,388,1001,1
181,534,1000,1
182,655,1001,1
183,648,1000,1
184,867,1000,1
185,984,1001,1
186,804,1001,1
187,437,1001,1
188,249,1001,1
189,794,1000,1
190,203,1000,1
191,489,1000,1
192,805,1000,1
193,464,1001,1
194,648,1001,1
195,61,1000,1
196,567,1001,1
197,951,1001,1
198,860,1000,1
199,790,1000,1
200,565,1001,1
201,351,1001,1
202,640,1000,1
203,843,1001,1
204,822,1001,1
205,576,1001,1
206,540,1001,1
207,587,1000,1
208,287,1000,1
209,975,1001,1
210,788,1001,1
211,86,1001,1
212,857,1000,1
213,518,1001,1
214,218,1000,1
215,284,1001,1
216,102,1001,1
217,489,1001,1
218,658,1001,1
219,314,1000,1
220,14,1000,1
221,740,1001,1
222,416,1000,1
223,591,1000,1
224,47,1001,1
225,492,1001,1
226,101,1001,1
227,740,1000,1
228,503,1000,1
229,654,1001,1
230,28,1001,1
231,116,1000,1
232,621,1001,1
233,83,1001,1
234,763,1001,1
235,32,1001,1
236,803,1001,1
237,280,1001,1
238,299,1000,1
239,32,1001,1
240,905,1000,1
241,514,1001,1
242,240,1001,1
243,865,1001,1
244,714,1000,1
245,867,1001,1
246,350,1000,1
247,736,1001,1
248,158,1000,1
249,962,1001,1
250,212,1001,1
251,785,1000,1
252,399,1000,1
253,63,1000,1
254,356,1000,1
255,759,1000,1
256,214,1001,1
257,387,1000,1
258,724,1001,1
259,149,1000,1
260,268,1001,1
261,405,1001,1
262,494,1000,1
263,630,1001,1
264,233,1001,1
265,736,1001,1
266,797,1000,1
267,985,1000,1
268,228,1001,1
269,484,1001,1
270,879,1001,1
271,717,1001,1
272,576,1001,1
273,751,1001,1
274,481,1001,1
275,770,1000,1
276,361,1001,1
277,693,1001,1
278,304,1001,1
279,352,1001,1
280,412,1000,1
281,817,1001,1
282,871,1000,1
283,69,1001,1
284,687,1000,1
285,604,1000,1
286,470,1001,1
287,417,1000,1
288,692,1001,1
289,321,1000,1
290,409,1001,1
291,197,1001,1
292,36,1000,1
293,204,1001,1
294,357,1000,1
295,596,1001,1
296,600,1001,1
297,485,1001,1
298,289,1000,1
299,127,1001,1
300,176,1000,1
301,805,1000,1
302,49,1000,1
303,163,1000,1
304,317,1000,1
305,508,1000,1
306,556,1001,1
307,229,1000,1
308,466,1000,1
309,995,1000,1
310,146,1000,1
311,269,1000,1
312,841,1000,1
313,779,1000,1
314,835,1001,1
315,767,1000,1
316,545,1000,1
317,752,1000,1
318,878,1001,1
319,60,1000,1
320,80,1000,1
321,173,1000,1
322,394,1001,1
323,861,1000,1
324,306,1001,1
325,897,1000,1
326,118,1001,1
327,695,1001,1
328,648,1000,1
329,861,1000,1
330,124,1001,1
331,580,1000,1
332,69,1001,1
333,269,1000,1
334,320,1001,1
335,874,1001,1
336,149,1000,1
337,69,1000,1
338,858,1000,1
339,439,1001,1
340,421,1001,1
341,973,1000,1
342,58,1000,1
343,418,1001,1
344,509,1000,1
345,101,1001,1
346,156,1001,1
347,152,1000,1
348,653,1001,1
349,919,1000,1
350,345,1000,1
351,634,1001,1
352,322,1000,1
353,927,1001,1
354,946,1001,1
355,409,1000,1
356,109,1001,1
357,372,1000,1
358,122,1001,1
359,37,1001,1
360,239,1001,1
361,896,1000,1
362,252,1001,1
363,592,1001,1
364,118,1000,1
365,870,1001,1
366,105,1001,1
367,49,1001,1
368,522,1001,1
369,776,1000,1
370,120,1000,1
371,549,1000,1
372,233,1000,1
373,823,1001,1
374,707,1001,1
375,881,1001,1
376,776,1000,1
377,441,1001,1
378,599,1001,1
379,893,1001,1
380,32,1000,1
381,64,1000,1
382,464,1000,1
383,574,1000,1
384,124,1001,1
385,209,1000,1
386,626,1000,1
387,12,1000,1
388,356,1000,1
389,79,1000,1
390,828,1000,1
391,851,1001,1
392,943,1000,1
393,155,1001,1
394,226,1001,1
395,442,1000,1
396,854,1000,1
397,81,1000,1
398,755,1000,1
399,56,1001,1
400,897,1000,1
401,49,1000,1
402,48,1001,1
403,889,1001,1
404,641,1001,1
405,507,1000,1
406,389,1000,1
407,678,1001,1
408,415,1001,1
409,786,1001,1
410,344,1000,1
411,395,1001,1
412,929,1001,1
413,45,1000,1
414,321,1000,1
415,118,1000,1
416,444,1001,1
417,805,1000,1
418,738,1000,1
419,514,1000,1
420,910,1001,1
421,373,1000,1
422,449,1000,1
423,707,1000,1
424,201,1000,1
425,116,1001,1
426,475,1000,1
427,250,1000,1
428,792,1000,1
429,658,1000,1
430,906,1000,1
431,167,1000,1
432,159,1000,1
433,664,1001,1
434,536,1001,1
435,752,1000,1
436,621,1000,1
437,661,1000,1
438,518,1000,1
439,220,1000,1
440,550,1001,1
441,997,1001,1
442,332,1000,1
443,359,1000,1
444,469,1001,1
445,384,1000,1
446,704,1001,1
447,977,1000,1
448,405,1001,1
449,257,1000,1
450,28,1001,1
451,509,1001,1
452,236,1001,1
453,741,1001,1
454,614,1001,1
455,463,1000,1
456,500,1001,1
457,829,1000,1
458,252,1000,1
459,75,1000,1
460,948,1001,1
461,123,1001,1
462,301,1001,1
463,796,1000,1
464,232,1000,1
465,113,1001,1
466,931,1001,1
467,117,1001,1
468,937,1000,1
469,804,1001,1
470,961,1000,1
471,302,1001,1
472,641,1001,1
473,316,1000,1
474,578,1001,1
475,561,1000,1
476,349,1001,1
477,446,1000,1
478,787,1001,1
479,836,1000,1
480,466,1000,1
481,30,1001,1
482,707,1000,1
483,892,1000,1
484,957,1000,1
485,41,1000,1
486,538,1000,1
487,732,1000,1
488,592,1000,1
489,143,1000,1
490,752,1000,1
491,851,1000,1
492,134,1001,1
493,596,1001,1
494,853,1000,1
495,90,1001,1
496,170,1000,1
497,649,1001,1
498,808,1001,1
499,477,1001,1
500,258,1000,1
501,634,1000,1
502,144,1000,1
503,268,1001,1
504,261,1000,1
505,839,1001,1
506,186,1000,1
507,440,1001,1
508,344,1000,1
509,940,1001,1
510,874,1001,1
511,359,1001,1
512,670,1000,1
513,86,1001,1
514,674,1000,1
515,272,1001,1
516,968,1000,1
517,453,1000,1
518,857,1001,1
519,232,1000,1
520,253,1001,1
521,537,1000,1
522,722,1001,1
523,287,1001,1
524,539,1001,1
525,23,1000,1
526,510,1000,1
527,487,1001,1
528,551,1000,1
529,532,1001,1
530,926,1000,1
531,650,1001,1
532,820,1000,1
533,974,1000,1
534,579,1000,1
535,364,1000,1
536,105,1000,1
537,995,1000,1
538,968,1000,1
539,132,1000,1
540,977,1001,1
541,121,1000,1
542,338,1000,1
543,136,1000,1
544,368,1001,1
545,213,1001,1
546,706,1001,1
547,286,1000,1
548,36,1000,1
549,402,1001,1
550,161,1001,1
551,191,1001,1
552,294,1001,1
553,184,1000,1
554,621,1001,1
555,942,1000,1
556,871,1001,1
557,148,1001,1
558,524,1001,1
559,125,1000,1
560,887,1000,1
561,402,1001,1
562,210,1000,1
563,939,1001,1
564,607,1000,1
565,426,1000,1
566,400,1000,1
567,565,1000,1
568,299,1000,1
569,812,1001,1
570,854,1001,1
571,268,1001,1
572,57,1000,1
573,504,1001,1
574,74,1000,1
575,480,1000,1
576,265,1000,1
577,791,1000,1
578,733,1000,1
579,711,1000,1
580,281,1001,1
581,608,1001,1
582,727,1000,1
583,597,1001,1
584,819,1000,1
585,365,1000,1
586,753,1000,1
587,938,1000,1
588,103,1001,1
589,543,1000,1
590,297,1000,1
591,152,1000,1
592,403,1001,1
593,337,1000,1
594,785,1000,1
595,115,1000,1
596,559,1001,1
597,245,1001,1
598,523,1001,1
599,697,1000,1
600,547,1001,1
601,555,1001,1
602,308,1000,1
603,489,1001,1
604,773,1001,1
605,716,1000,1
606,69,1001,1
607,760,1000,1
608,14,1001,1
609,991,1001,1
610,481,1000,1
611,736,1000,1
612,731,1001,1
613,147,1000,1
614,700,1000,1
615,491,1000,1
616,98,1000,1
617,854,1000,1
618,6,1000,1
619,975,1001,1
620,154,1001,1
621,936,1000,1
622,207,1001,1
623,70,1000,1
624,816,1001,1
625,652,1000,1
626,442,1001,1
627,702,1000,1
628,448,1000,1
629,741,1000,1
630,852,1001,1
631,137,1001,1
632,777,1001,1
633,77,1000,1
634,171,1000,1
635,742,1001,1
636,626,1001,1
637,906,1000,1
638,518,1001,1
639,850,1001,1
640,774,1000,1
641,349,1000,1
642,772,1001,1
643,83,1001,1
644,453,1001,1
645,938,1001,1
646,427,1000,1
647,130,1001,1
648,5,1001,1
649,974,1001,1
650,638,1000,1
651,994,1001,1
652,999,1001,1
653,308,1000,1
654,798,1001,1
655,649,1000,1
656,340,1000,1
657,563,1001,1
658,66,1000,1
659,144,1000,1
660,800,1001,1
661,491,1000,1
662,367,1001,1
663,767,1000,1
664,184,1001,1
665,855,1000,1
666,336,1001,1
667,525,1001,1
668,604,1001,1
669,838,1001,1
670,802,1000,1
671,36,1001,1
672,437,1000,1
673,702,1000,1
674,231,1000,1
675,190,1001,1
676,863,1000,1
677,108,1001,1
678,754,1000,1
679,956,1001,1
680,59,1001,1
681,973,1000,1
682,82,1001,1
683,59,1000,1
684,569,1001,1
685,352,1000,1
686,692,1000,1
687,172,1000,1
688,115,1001,1
689,496,1001,1
690,89,1000,1
691,666,1001,1
692,622,1001,1
693,105,1000,1
694,596,1000,1
695,267,1001,1
696,827,1001,1
697,779,1000,1
698,268,1000,1
699,920,1000,1
700,539,1000,1
701,137,1001,1
702,93,1000,1
703,810,1001,1
704,237,1000,1
705,69,1000,1
706,339,1001,1
707,416,1000,1
708,412,1001,1
709,791,1001,1
710,580,1001,1
711,288,1001,1
712,554,1001,1
713,81,1000,1
714,160,1000,1
715,572,1001,1
716,295,1001,1
717,162,1000,1
718,883,1000,1
719,346,1000,1
720,706,1000,1
721,117,1000,1
722,637,1001,1
723,267,1001,1
724,930,1000,1
725,333,1001,1
726,797,1000,1
727,970,1001,1
728,887,1000,1
729,862,1000,1
730,638,1000,1
731,10,1001,1
732,776,1000,1
733,782,1000,1
734,343,1001,1
735,291,1000,1
736,346,1000,1
737,102,1001,1
738,954,1001,1
739,215,1001,1
740,800,1001,1
741,621,1001,1
742,374,1000,1
743,31,1001,1
744,606,1000,1
745,13,1000,1
746,473,1001,1
747,723,1000,1
748,243,1000,1
749,526,1001,1
750,521,1000,1
751,802,1000,1
752,953,1001,1
753,979,1001,1
754,599,1000,1
755,281,1001,1
756,553,1001,1
757,306,1001,1
758,521,1000,1
759,483,1000,1
760,458,1001,1
761,965,1001,1
762,108,1000,1
763,813,1000,1
764,335,1000,1
765,498,1001,1
766,876,1001,1
767,671,1001,1
768,508,1000,1
769,671,1001,1
770,110,1000,1
771,696,1001,1
772,123,1001,1
773,735,1000,1
774,760,1001,1
775,135,1000,1
776,177,1001,1
777,237,1000,1
778,14,1000,1
779,394,1000,1
780,115,1000,1
781,30,1001,1
782,379,1000,1
783,669,1000,1
784,71,1001,1
785,167,1000,1
786,293,1001,1
787,685,1001,1
788,278,1001,1
789,287,1001,1
790,770,1001,1
791,963,1000,1
792,569,1001,1
793,936,1001,1
794,153,1000,1
795,682,1000,1
796,102,1000,1
797,914,1000,1
798,478,1000,1
799,389,1000,1
800,940,1000,1
801,907,1001,1
802,414,1000,1
803,409,1000,1
804,448,1000,1
805,501,1000,1
806,404,1001,1
807,958,1001,1
808,386,1000,1
809,700,1001,1
810,399,1000,1
811,482,1000,1
812,29,1001,1
813,985,1000,1
814,750,1001,1
815,606,1000,1
816,172,1001,1
817,540,1001,1
818,600,1001,1
819,932,1000,1
820,35,1001,1
821,115,1000,1
822,321,1001,1
823,263,1000,1
824,728,1001,1
825,991,1000,1
826,233,1000,1
827,913,1001,1
828,466,1000,1
829,132,1001,1
830,322,1000,1
831,39,1000,1
832,328,1001,1
833,272,1000,1
834,428,1000,1
835,872,1001,1
836,242,1001,1
837,133,1000,1
838,902,1001,1
839,57,1001,1
840,818,1000,1
841,417,1001,1
842,936,1001,1
843,397,1001,1
844,726,1000,1
845,302,1000,1
846,866,1000,1
847,207,1000,1
848,69,1001,1
849,959,1001,1
850,238,1000,1
851,282,1001,1
852,536,1000,1
853,979,1000,1
854,470,1000,1
855,44,1000,1
856,942,1000,1
857,529,1001,1
858,349,1000,1
859,763,1001,1
860,50,1001,1
861,971,1001,1
862,392,1001,1
863,433,1000,1
864,389,1001,1
865,398,1000,1
866,478,1001,1
867,976,1000,1
868,895,1001,1
869,794,1001,1
870,680,1000,1
871,727,1000,1
872,683,1000,1
873,876,1001,1
874,552,1000,1
875,928,1000,1
876,321,1001,1
877,103,1001,1
878,606,1000,1
879,913,1001,1
880,571,1001,1
881,945,1000,1
882,924,1001,1
883,545,1000,1
884,540,1001,1
885,872,1001,1
886,910,1000,1
887,610,1001,1
888,620,1001,1
889,278,1000,1
890,801,1000,1
891,897,1001,1
892,736,1000,1
893,734,1000,1
894,595,1001,1
895,604,1000,1
896,237,1000,1
897,100,1001,1
898,601,1000,1
899,72,1000,1
900,871,1001,1
901,357,1001,1
902,908,1001,1
903,35,1001,1
904,10,1000,1
905,523,1001,1
906,296,1000,1
907,369,1000,1
908,511,1000,1
909,17,1000,1
910,256,1000,1
911,191,1000,1
912,948,1000,1
913,145,1000,1
914,292,1001,1
915,742,1000,1
916,648,1001,1
917,773,1001,1
918,147,1000,1
919,620,1000,1
920,634,1000,1
921,584,1001,1
922,27,1001,1
923,653,1000,1
924,365,1001,1
925,704,1000,1
926,972,1001,1
927,227,1000,1
928,587,1000,1
929,92,1001,1
930,993,1001,1
931,110,1001,1
932,300,1000,1
933,158,1001,1
934,974,1001,1
935,739,1001,1
936,973,1000,1
937,400,1000,1
938,98,1000,1
939,14,1001,1
940,953,1001,1
941,169,1001,1
942,909,1001,1
943,636,1001,1
944,498,1000,1
945,2,1001,1
946,958,1001,1
947,598,1001,1
948,746,1000,1
949,59,1000,1
950,460,1001,1
951,207,1000,1
952,562,1001,1
953,956,1001,1
954,385,1001,1
955,502,1001,1
956,13,1001,1
957,574,1001,1
958,885,1000,1
959,124,1000,1
960,522,1001,1
961,643,1000,1
962,181,1001,1
963,47,1001,1
964,314,1001,1
965,73,1001,1
966,123,1000,1
967,350,1001,1
968,387,1001,1
969,317,1000,1
970,214,1000,1
971,754,1000,1
972,525,1001,1
973,580,1001,1
974,362,1000,1
975,885,1001,1
976,975,1000,1
977,561,1000,1
978,902,1000,1
979,163,1001,1
980,720,1000,1
981,1000,1001,1
982,689,1001,1
983,704,1000,1
984,262,1000,1
985,455,1001,1
986,863,1000,1
987,999,1001,1
988,737,1001,1
989,383,1001,1
990,566,1001,1
991,603,1000,1
992,808,1000,1
993,454,1000,1
994,219,1000,1
995,418,1000,1
996,898,1000,1
997,502,1000,1
998,746,1001,1
999,650,1000,1
1000,147,1001,1
